============================[ Problem Statistics ]=============================|                                                                             ||  Number of variables:          4242                                         ||  Number of clauses:            9937                                         ||  Parse time:                   0.33 s                                       ||                                                                             |============================[ Search Statistics ]==============================| Conflicts |          ORIGINAL         |          LEARNT          | Progress ||           |    Vars  Clauses Literals |    Limit  Clauses Lit/Cl |          |===============================================================================|       100 |    1591     6142   519323 |     2252      100     53 | 62.501 % |===============================================================================restarts              : 2conflicts             : 192            (381 /sec)decisions             : 362            (0.00 % random) (718 /sec)propagations          : 10049          (19938 /sec)conflict literals     : 13381          (95.19 % deleted)CPU time              : 0.504 sSATISFIABLE